c graph converted from Delauney Triangulation format
c weights on edges removed (lost)
x low 0.00
p edge 200 580
n 0 1.00
n 20 1.00
n 89 1.00
n 94 1.00
n 173 1.00
n 97 1.00
n 1 1.00
n 15 1.00
n 77 1.00
n 154 1.00
n 12 1.00
n 108 1.00
n 2 1.00
n 84 1.00
n 141 1.00
n 10 1.00
n 157 1.00
n 28 1.00
n 7 1.00
n 3 1.00
n 86 1.00
n 82 1.00
n 5 1.00
n 113 1.00
n 132 1.00
n 65 1.00
n 4 1.00
n 55 1.00
n 80 1.00
n 131 1.00
n 196 1.00
n 66 1.00
n 193 1.00
n 32 1.00
n 14 1.00
n 111 1.00
n 6 1.00
n 57 1.00
n 83 1.00
n 168 1.00
n 33 1.00
n 56 1.00
n 185 1.00
n 59 1.00
n 90 1.00
n 135 1.00
n 98 1.00
n 96 1.00
n 8 1.00
n 45 1.00
n 24 1.00
n 26 1.00
n 160 1.00
n 70 1.00
n 9 1.00
n 188 1.00
n 67 1.00
n 122 1.00
n 121 1.00
n 92 1.00
n 11 1.00
n 106 1.00
n 186 1.00
n 125 1.00
n 109 1.00
n 13 1.00
n 117 1.00
n 124 1.00
n 119 1.00
n 63 1.00
n 181 1.00
n 146 1.00
n 76 1.00
n 104 1.00
n 102 1.00
n 182 1.00
n 105 1.00
n 16 1.00
n 40 1.00
n 35 1.00
n 191 1.00
n 44 1.00
n 17 1.00
n 23 1.00
n 161 1.00
n 95 1.00
n 18 1.00
n 134 1.00
n 129 1.00
n 199 1.00
n 150 1.00
n 136 1.00
n 19 1.00
n 180 1.00
n 79 1.00
n 37 1.00
n 71 1.00
n 165 1.00
n 107 1.00
n 21 1.00
n 192 1.00
n 22 1.00
n 87 1.00
n 170 1.00
n 103 1.00
n 46 1.00
n 172 1.00
n 159 1.00
n 152 1.00
n 145 1.00
n 25 1.00
n 61 1.00
n 99 1.00
n 100 1.00
n 149 1.00
n 68 1.00
n 175 1.00
n 60 1.00
n 27 1.00
n 128 1.00
n 31 1.00
n 29 1.00
n 133 1.00
n 74 1.00
n 30 1.00
n 62 1.00
n 47 1.00
n 147 1.00
n 194 1.00
n 50 1.00
n 166 1.00
n 174 1.00
n 81 1.00
n 34 1.00
n 171 1.00
n 118 1.00
n 36 1.00
n 114 1.00
n 183 1.00
n 137 1.00
n 151 1.00
n 38 1.00
n 39 1.00
n 197 1.00
n 69 1.00
n 148 1.00
n 189 1.00
n 169 1.00
n 116 1.00
n 101 1.00
n 41 1.00
n 42 1.00
n 115 1.00
n 163 1.00
n 184 1.00
n 51 1.00
n 195 1.00
n 88 1.00
n 43 1.00
n 178 1.00
n 187 1.00
n 64 1.00
n 140 1.00
n 120 1.00
n 155 1.00
n 48 1.00
n 85 1.00
n 110 1.00
n 49 1.00
n 54 1.00
n 139 1.00
n 158 1.00
n 127 1.00
n 162 1.00
n 53 1.00
n 52 1.00
n 72 1.00
n 153 1.00
n 143 1.00
n 142 1.00
n 112 1.00
n 179 1.00
n 93 1.00
n 73 1.00
n 177 1.00
n 58 1.00
n 75 1.00
n 156 1.00
n 164 1.00
n 130 1.00
n 123 1.00
n 144 1.00
n 167 1.00
n 126 1.00
n 78 1.00
n 138 1.00
n 91 1.00
n 190 1.00
n 176 1.00
n 198 1.00
e 0 20
e 0 89
e 0 94
e 0 173
e 0 97
e 1 15
e 1 77
e 1 154
e 1 12
e 1 108
e 2 84
e 2 141
e 2 10
e 2 157
e 2 94
e 2 28
e 2 7
e 3 86
e 3 82
e 3 5
e 3 113
e 3 132
e 3 65
e 4 55
e 4 80
e 4 131
e 4 196
e 4 66
e 4 193
e 5 32
e 5 82
e 5 14
e 5 111
e 5 65
e 6 57
e 6 83
e 6 168
e 6 33
e 6 56
e 6 185
e 6 59
e 7 28
e 7 157
e 7 90
e 7 135
e 7 98
e 7 96
e 8 45
e 8 24
e 8 33
e 8 26
e 8 160
e 8 70
e 9 188
e 9 67
e 9 122
e 9 141
e 10 121
e 10 92
e 10 84
e 10 157
e 11 160
e 11 173
e 11 97
e 11 70
e 11 106
e 12 186
e 12 154
e 12 125
e 12 108
e 12 109
e 13 117
e 13 124
e 13 119
e 13 63
e 13 181
e 14 146
e 14 32
e 14 111
e 15 76
e 15 104
e 15 102
e 15 77
e 15 182
e 15 105
e 15 108
e 15 119
e 16 40
e 16 35
e 16 191
e 16 44
e 16 77
e 17 23
e 17 161
e 17 95
e 17 44
e 17 104
e 17 77
e 18 134
e 18 129
e 18 199
e 18 150
e 18 136
e 19 180
e 19 79
e 19 37
e 19 71
e 20 165
e 20 107
e 20 122
e 20 89
e 20 94
e 21 192
e 21 22
e 21 87
e 21 170
e 21 103
e 22 80
e 22 134
e 22 46
e 22 192
e 22 87
e 22 172
e 23 161
e 23 159
e 23 152
e 23 104
e 23 76
e 24 145
e 24 45
e 24 168
e 24 33
e 25 61
e 25 99
e 25 100
e 25 149
e 25 68
e 26 33
e 26 175
e 26 70
e 26 60
e 27 128
e 27 157
e 27 92
e 27 90
e 28 94
e 28 97
e 28 31
e 28 135
e 29 133
e 29 180
e 29 68
e 29 74
e 29 79
e 30 186
e 30 62
e 30 47
e 30 40
e 30 147
e 30 194
e 30 50
e 31 97
e 31 135
e 31 166
e 31 106
e 31 174
e 32 81
e 32 63
e 32 146
e 32 82
e 33 168
e 33 56
e 33 175
e 34 70
e 34 60
e 34 171
e 34 106
e 35 95
e 35 118
e 35 40
e 35 44
e 36 114
e 36 183
e 36 71
e 36 79
e 37 180
e 37 137
e 37 165
e 37 151
e 37 71
e 37 145
e 38 39
e 38 197
e 38 69
e 38 148
e 38 189
e 38 169
e 38 188
e 39 193
e 39 196
e 39 116
e 39 66
e 39 197
e 39 189
e 40 101
e 40 147
e 40 118
e 40 191
e 40 186
e 41 119
e 41 108
e 41 109
e 41 63
e 41 81
e 42 115
e 42 163
e 42 184
e 42 51
e 42 195
e 42 88
e 43 199
e 43 129
e 43 101
e 43 147
e 44 95
e 44 77
e 45 145
e 45 89
e 45 160
e 46 178
e 46 80
e 46 187
e 46 64
e 46 172
e 46 140
e 47 62
e 47 109
e 47 194
e 47 120
e 47 155
e 48 68
e 48 133
e 48 85
e 48 137
e 48 110
e 48 67
e 49 163
e 49 54
e 49 102
e 49 139
e 49 158
e 49 184
e 50 194
e 50 155
e 50 127
e 50 147
e 51 162
e 51 115
e 51 53
e 51 57
e 51 195
e 52 148
e 52 169
e 52 188
e 52 72
e 53 162
e 53 153
e 53 114
e 53 57
e 54 143
e 54 103
e 54 142
e 54 152
e 54 76
e 54 163
e 54 102
e 55 80
e 55 131
e 55 61
e 55 99
e 55 112
e 55 100
e 56 179
e 56 93
e 56 175
e 56 59
e 56 73
e 56 177
e 57 114
e 57 168
e 57 83
e 57 195
e 58 166
e 58 135
e 58 174
e 58 75
e 58 171
e 58 156
e 59 185
e 59 73
e 59 164
e 59 88
e 59 86
e 60 175
e 60 179
e 60 70
e 60 130
e 60 156
e 60 171
e 61 131
e 61 99
e 61 193
e 61 68
e 62 186
e 62 125
e 62 109
e 63 119
e 63 81
e 63 181
e 63 82
e 64 187
e 64 123
e 64 140
e 64 183
e 65 144
e 65 132
e 65 156
e 65 111
e 66 196
e 66 197
e 67 110
e 67 85
e 67 188
e 67 122
e 68 149
e 68 193
e 68 74
e 68 133
e 68 110
e 69 197
e 69 148
e 70 160
e 70 106
e 71 114
e 71 79
e 71 168
e 71 145
e 72 188
e 72 141
e 72 121
e 72 84
e 72 148
e 72 197
e 73 164
e 73 177
e 73 167
e 73 144
e 74 149
e 74 100
e 74 126
e 74 79
e 75 135
e 75 98
e 75 96
e 75 156
e 75 111
e 76 152
e 76 104
e 76 102
e 77 191
e 77 104
e 77 154
e 77 186
e 78 112
e 78 178
e 78 187
e 78 126
e 79 126
e 79 180
e 79 123
e 79 183
e 80 112
e 80 178
e 80 134
e 81 109
e 81 120
e 81 146
e 82 86
e 82 181
e 83 195
e 83 185
e 84 121
e 84 141
e 85 137
e 85 165
e 85 122
e 86 88
e 86 164
e 86 113
e 86 181
e 87 170
e 87 172
e 87 138
e 87 142
e 88 184
e 88 195
e 88 117
e 88 185
e 88 181
e 89 107
e 89 145
e 89 160
e 89 173
e 90 157
e 90 128
e 90 96
e 91 199
e 91 150
e 91 136
e 91 101
e 91 118
e 92 121
e 92 157
e 93 179
e 93 177
e 93 130
e 94 122
e 94 141
e 94 97
e 95 118
e 95 136
e 95 161
e 96 98
e 97 173
e 97 106
e 98 135
e 99 100
e 100 149
e 100 112
e 100 126
e 101 199
e 101 147
e 101 118
e 102 139
e 102 182
e 103 192
e 103 143
e 103 170
e 103 142
e 105 182
e 105 139
e 105 158
e 105 117
e 105 119
e 105 124
e 106 174
e 106 171
e 107 151
e 107 165
e 107 145
e 108 119
e 108 109
e 109 125
e 109 120
e 110 116
e 110 189
e 110 193
e 110 188
e 111 146
e 111 127
e 111 156
e 112 178
e 112 126
e 113 164
e 113 167
e 113 132
e 114 183
e 114 172
e 114 138
e 114 190
e 114 153
e 114 168
e 115 176
e 115 162
e 115 163
e 116 193
e 116 189
e 117 158
e 117 184
e 117 124
e 117 181
e 118 136
e 119 124
e 120 155
e 120 146
e 120 127
e 121 197
e 122 165
e 122 141
e 123 126
e 123 187
e 123 183
e 125 186
e 126 187
e 127 146
e 127 155
e 128 157
e 129 134
e 129 199
e 130 198
e 130 177
e 130 179
e 130 156
e 131 193
e 132 144
e 132 167
e 133 180
e 133 137
e 134 192
e 134 136
e 134 161
e 134 159
e 135 166
e 136 150
e 136 161
e 137 180
e 137 165
e 138 172
e 138 142
e 138 190
e 139 182
e 139 158
e 140 172
e 140 183
e 141 188
e 142 170
e 142 190
e 142 176
e 142 163
e 143 159
e 143 192
e 143 152
e 144 167
e 144 177
e 144 198
e 144 156
e 145 151
e 145 168
e 148 169
e 148 197
e 150 199
e 151 165
e 152 159
e 153 176
e 153 190
e 153 162
e 154 186
e 155 194
e 156 171
e 156 198
e 158 184
e 159 192
e 159 161
e 160 173
e 162 176
e 163 176
e 163 184
e 164 167
e 166 174
e 169 188
e 171 174
e 172 183
e 175 179
e 176 190
e 177 198
e 178 187
e 185 195
e 186 191
e 188 189
e 193 196
